NAME : problems/30-tsp/instance-35.tsp
COMMENT : No Comment
TYPE : TSP
DIMENSION: 30
EDGE_WEIGHT_TYPE : EUC_2D
NODE_COORD_SECTION
1 2111 6955 
2 6745 7179 
3 4162 6337 
4 135 6288 
5 5728 3679 
6 7391 7033 
7 1681 2893 
8 856 5727 
9 4731 3802 
10 1443 512 
11 1669 1969 
12 6205 6708 
13 7848 2517 
14 7249 3553 
15 5438 2097 
16 3485 3852 
17 669 2404 
18 5835 4761 
19 5925 3965 
20 2434 5747 
21 4627 5294 
22 3194 7583 
23 7347 5154 
24 6400 8361 
25 4634 4313 
26 7132 5567 
27 6310 7494 
28 9703 4818 
29 2621 3372 
30 6439 3370 
EOF
